objective value:                                    0
delta[1,27]*                                       10 	(obj:0)
delta[0,29]*                                       10 	(obj:0)
mu[1,27,43]*                         1.67422553399757 	(obj:0)
mu[1,27,44]*                         6.74862232810123 	(obj:0)
transfer_mu[0,18,18]*                2.51564644524097 	(obj:0)
transfer_mu[0,24,24]*                2.27920770745123 	(obj:0)
mu[0,29,59]*                         3.40032363909552 	(obj:0)
mu[0,29,64]*                         1.80482220821227 	(obj:0)
mu[1,27,67]*                          1.5771521379012 	(obj:0)
